c     column_bin_5a_3p
c     ---------EQUIPE--------
c     Carlos Eduardo Freitas
c     Lucas de Carvalho
c     --------DISCPLINA------
c     Logica Para Computacao
c     Professor Thiago Alves
c     2021.2
c     ----------------------
p cnf 68 170
-1 -2 0
-1 -3 0
-1 2 -3 0
1 -2 -3 0
-2 -3 0
1 2 3 0
-4 -5 0
-4 -6 0
-4 5 -6 0
4 -5 -6 0
-5 -6 0
4 5 6 0
-7 -8 0
-7 -9 0
-7 8 -9 0
7 -8 -9 0
-8 -9 0
7 8 9 0
-10 -11 0
-10 -12 0
-10 11 -12 0
10 -11 -12 0
-11 -12 0
10 11 12 0
-13 -14 0
-13 -15 0
-13 14 -15 0
13 -14 -15 0
-14 -15 0
13 14 15 0
-16 -17 0
-16 -18 0
-16 17 -18 0
16 -17 -18 0
-17 -18 0
16 17 18 0
-19 -20 0
-19 -21 0
-19 20 -21 0
19 -20 -21 0
-20 -21 0
19 20 21 0
-22 -23 0
-22 -24 0
-22 23 -24 0
22 -23 -24 0
-23 -24 0
22 23 24 0
-25 -26 0
-25 -27 0
-25 26 -27 0
25 -26 -27 0
-26 -27 0
25 26 27 0
-28 -29 0
-28 -30 0
-28 29 -30 0
28 -29 -30 0
-29 -30 0
28 29 30 0
-31 -32 0
-31 -33 0
-31 32 -33 0
31 -32 -33 0
-32 -33 0
31 32 33 0
-34 -35 0
-34 -36 0
-34 35 -36 0
34 -35 -36 0
-35 -36 0
34 35 36 0
-37 -38 0
-37 -39 0
-37 38 -39 0
37 -38 -39 0
-38 -39 0
37 38 39 0
-40 -41 0
-40 -42 0
-40 41 -42 0
40 -41 -42 0
-41 -42 0
40 41 42 0
-43 -44 0
-43 -45 0
-43 44 -45 0
43 -44 -45 0
-44 -45 0
43 44 45 0
-46 -47 0
-46 -48 0
-46 47 -48 0
46 -47 -48 0
-47 -48 0
46 47 48 0
-49 -50 0
-49 -51 0
-49 50 -51 0
49 -50 -51 0
-50 -51 0
49 50 51 0
-52 -53 0
-52 -54 0
-52 53 -54 0
52 -53 -54 0
-53 -54 0
52 53 54 0
-55 -56 0
-55 -57 0
-55 56 -57 0
55 -56 -57 0
-56 -57 0
55 56 57 0
-58 -59 0
-58 -60 0
-58 59 -60 0
58 -59 -60 0
-59 -60 0
58 59 60 0
-3 -6 -9 -12 -15 0
-18 -21 -24 -27 -30 0
-33 -36 -39 -42 -45 0
-48 -51 -54 -57 -60 0
1 4 7 11 14 0
16 19 22 26 29 0
31 34 37 41 44 0
46 49 52 56 59 0
-1 -61 0
-4 -61 0
-8 -61 0
-10 -61 0
-14 -61 0
-1 -62 0
-4 -62 0
-7 -62 0
-10 -62 0
-13 -62 0
-16 -65 0
-19 -65 0
-23 -65 0
-25 -65 0
-29 -65 0
-16 -66 0
-19 -66 0
-22 -66 0
-25 -66 0
-28 -66 0
-31 -69 0
-34 -69 0
-38 -69 0
-40 -69 0
-44 -69 0
-31 -70 0
-34 -70 0
-37 -70 0
-40 -70 0
-43 -70 0
-46 -73 0
-49 -73 0
-53 -73 0
-55 -73 0
-59 -73 0
-46 -74 0
-49 -74 0
-52 -74 0
-55 -74 0
-58 -74 0
61 65 69 73 0
62 66 70 74 0
